NAME : 	X-n502-k39	
COMMENT : 	"Generated by Uchoa, Pecin, Pessoa, Poggi, Subramanian, and Vidal (2013)"	
TYPE : 	CVRP	
DIMENSION : 	502	
EDGE_WEIGHT_TYPE : 	EUC_2D	
CAPACITY : 	13	
NODE_COORD_SECTION		
1	0	0
2	159	917
3	635	200
4	278	907
5	667	141
6	119	954
7	29	448
8	590	87
9	375	990
10	511	374
11	298	957
12	107	911
13	323	766
14	161	892
15	151	912
16	438	1000
17	284	933
18	724	191
19	286	940
20	144	785
21	672	157
22	759	176
23	553	179
24	625	167
25	133	924
26	695	73
27	149	946
28	599	162
29	305	712
30	229	709
31	332	874
32	756	143
33	696	248
34	94	777
35	381	975
36	224	928
37	414	951
38	910	190
39	749	162
40	668	273
41	146	786
42	17	793
43	255	883
44	326	837
45	549	226
46	137	868
47	74	977
48	618	248
49	328	898
50	62	802
51	177	914
52	646	208
53	666	142
54	591	205
55	163	873
56	721	164
57	623	153
58	333	956
59	237	874
60	729	102
61	330	896
62	192	949
63	446	930
64	148	897
65	92	876
66	389	942
67	131	847
68	237	990
69	594	149
70	780	190
71	719	271
72	168	982
73	278	911
74	256	896
75	279	903
76	613	47
77	597	187
78	440	296
79	320	872
80	261	925
81	301	931
82	599	218
83	227	860
84	591	189
85	319	992
86	617	172
87	118	839
88	117	909
89	578	300
90	503	966
91	232	907
92	34	955
93	191	816
94	273	42
95	171	877
96	132	920
97	113	906
98	581	125
99	138	910
100	149	870
101	622	303
102	278	845
103	587	60
104	234	818
105	310	832
106	568	227
107	711	167
108	728	251
109	185	937
110	110	840
111	254	945
112	140	937
113	238	919
114	9	875
115	97	799
116	804	100
117	243	927
118	310	938
119	171	826
120	677	213
121	708	166
122	151	931
123	262	920
124	121	769
125	149	660
126	199	749
127	78	738
128	323	963
129	63	799
130	233	931
131	693	170
132	673	156
133	213	980
134	620	191
135	125	946
136	748	117
137	250	926
138	661	327
139	147	831
140	181	923
141	548	235
142	682	157
143	263	898
144	469	339
145	144	915
146	569	234
147	577	450
148	598	231
149	693	229
150	227	952
151	211	643
152	12	942
153	288	969
154	734	312
155	641	37
156	241	761
157	618	206
158	156	915
159	712	391
160	74	787
161	705	109
162	240	902
163	603	338
164	572	363
165	620	204
166	272	925
167	652	231
168	585	299
169	107	789
170	617	223
171	242	907
172	601	240
173	453	388
174	301	889
175	246	818
176	356	916
177	681	238
178	607	119
179	351	970
180	159	896
181	582	156
182	472	257
183	143	878
184	113	926
185	236	888
186	738	73
187	677	194
188	716	196
189	532	304
190	334	772
191	514	326
192	220	712
193	631	121
194	531	262
195	707	228
196	617	160
197	624	151
198	609	191
199	599	228
200	210	727
201	481	78
202	239	749
203	650	373
204	550	138
205	393	807
206	195	806
207	81	873
208	375	829
209	506	104
210	104	898
211	674	225
212	271	910
213	222	806
214	655	37
215	324	847
216	622	54
217	399	213
218	101	875
219	668	402
220	30	895
221	241	842
222	627	176
223	869	235
224	812	223
225	561	286
226	171	973
227	582	242
228	192	858
229	651	183
230	175	840
231	365	946
232	215	770
233	125	924
234	296	984
235	682	174
236	165	846
237	136	982
238	397	821
239	185	807
240	236	972
241	278	948
242	338	880
243	759	215
244	498	51
245	177	962
246	253	878
247	190	865
248	612	266
249	204	902
250	169	877
251	101	877
252	586	247
253	242	885
254	235	775
255	585	201
256	592	164
257	461	897
258	652	246
259	267	899
260	204	860
261	298	852
262	156	936
263	135	977
264	268	927
265	303	918
266	110	877
267	625	248
268	265	857
269	592	325
270	715	115
271	565	376
272	306	759
273	208	961
274	120	892
275	115	963
276	33	726
277	750	227
278	432	927
279	97	802
280	552	303
281	257	846
282	191	873
283	595	189
284	190	815
285	175	949
286	359	932
287	458	246
288	175	872
289	486	173
290	320	818
291	207	945
292	32	894
293	183	837
294	76	937
295	154	972
296	215	886
297	647	225
298	90	963
299	635	199
300	310	860
301	757	281
302	528	222
303	187	947
304	568	144
305	179	893
306	429	939
307	323	841
308	527	77
309	116	883
310	792	274
311	611	282
312	170	927
313	776	408
314	136	925
315	161	968
316	575	237
317	283	911
318	684	269
319	303	957
320	98	843
321	608	145
322	136	934
323	412	885
324	435	879
325	421	265
326	189	916
327	296	925
328	394	969
329	161	856
330	222	947
331	189	816
332	470	256
333	239	875
334	171	888
335	433	776
336	434	170
337	205	941
338	55	872
339	354	803
340	612	189
341	135	857
342	664	215
343	145	863
344	740	71
345	102	946
346	592	250
347	519	99
348	214	884
349	402	983
350	593	174
351	118	922
352	738	121
353	41	948
354	350	705
355	544	124
356	196	681
357	160	889
358	159	858
359	654	195
360	782	275
361	328	864
362	605	668
363	241	885
364	740	404
365	266	914
366	717	180
367	458	81
368	684	230
369	301	860
370	180	920
371	301	865
372	294	964
373	383	912
374	559	143
375	747	383
376	433	966
377	563	258
378	827	145
379	294	784
380	147	707
381	173	944
382	298	915
383	175	923
384	333	919
385	280	869
386	596	219
387	614	286
388	104	861
389	279	771
390	188	938
391	100	840
392	117	866
393	722	126
394	215	853
395	276	893
396	444	296
397	547	286
398	213	803
399	86	990
400	173	947
401	672	173
402	130	983
403	360	987
404	718	192
405	66	817
406	657	97
407	33	914
408	649	414
409	680	208
410	623	266
411	678	101
412	270	864
413	620	232
414	335	935
415	451	57
416	295	987
417	101	738
418	359	881
419	158	934
420	182	919
421	717	177
422	653	54
423	683	139
424	381	928
425	277	962
426	645	238
427	608	267
428	625	217
429	565	76
430	523	188
431	519	855
432	165	947
433	305	922
434	406	294
435	125	702
436	227	858
437	774	36
438	611	204
439	107	703
440	209	979
441	557	175
442	80	903
443	172	890
444	203	984
445	665	200
446	230	892
447	138	914
448	270	872
449	702	198
450	737	258
451	150	975
452	666	196
453	174	804
454	266	959
455	142	936
456	142	976
457	79	750
458	208	836
459	439	240
460	438	339
461	841	230
462	289	910
463	191	888
464	309	861
465	242	958
466	408	932
467	243	954
468	616	200
469	729	281
470	642	230
471	707	106
472	395	678
473	134	820
474	514	197
475	547	236
476	660	98
477	0	923
478	190	870
479	302	673
480	50	967
481	79	930
482	628	254
483	3	965
484	159	988
485	613	252
486	229	833
487	343	877
488	255	772
489	626	246
490	332	921
491	214	861
492	200	882
493	117	872
494	119	964
495	370	865
496	632	243
497	304	893
498	52	899
499	434	232
500	288	773
501	301	905
502	284	799
DEMAND_SECTION		
1	0	
2	1	
3	1
4	1
5	1
6	1
7	1
8	1
9	1
10	1
11	1
12	1
13	1
14	1
15	1
16	1
17	1
18	1
19	1
20	1
21	1
22	1
23	1
24	1
25	1
26	1
27	1
28	1
29	1
30	1
31	1
32	1
33	1
34	1
35	1
36	1
37	1
38	1
39	1
40	1
41	1
42	1
43	1
44	1
45	1
46	1
47	1
48	1
49	1
50	1
51	1
52	1
53	1
54	1
55	1
56	1
57	1
58	1
59	1
60	1
61	1
62	1
63	1
64	1
65	1
66	1
67	1
68	1
69	1
70	1
71	1
72	1
73	1
74	1
75	1
76	1
77	1
78	1
79	1
80	1
81	1
82	1
83	1
84	1
85	1
86	1
87	1
88	1
89	1
90	1
91	1
92	1
93	1
94	1
95	1
96	1
97	1
98	1
99	1
100	1
101	1
102	1
103	1
104	1
105	1
106	1
107	1
108	1
109	1
110	1
111	1
112	1
113	1
114	1
115	1
116	1
117	1
118	1
119	1
120	1
121	1
122	1
123	1
124	1
125	1
126	1
127	1
128	1
129	1
130	1
131	1
132	1
133	1
134	1
135	1
136	1
137	1
138	1
139	1
140	1
141	1
142	1
143	1
144	1
145	1
146	1
147	1
148	1
149	1
150	1
151	1
152	1
153	1
154	1
155	1
156	1
157	1
158	1
159	1
160	1
161	1
162	1
163	1
164	1
165	1
166	1
167	1
168	1
169	1
170	1
171	1
172	1
173	1
174	1
175	1
176	1
177	1
178	1
179	1
180	1
181	1
182	1
183	1
184	1
185	1
186	1
187	1
188	1
189	1
190	1
191	1
192	1
193	1
194	1
195	1
196	1
197	1
198	1
199	1
200	1
201	1
202	1
203	1
204	1
205	1
206	1
207	1
208	1
209	1
210	1
211	1
212	1
213	1
214	1
215	1
216	1
217	1
218	1
219	1
220	1
221	1
222	1
223	1
224	1
225	1
226	1
227	1
228	1
229	1
230	1
231	1
232	1
233	1
234	1
235	1
236	1
237	1
238	1
239	1
240	1
241	1
242	1
243	1
244	1
245	1
246	1
247	1
248	1
249	1
250	1
251	1
252	1
253	1
254	1
255	1
256	1
257	1
258	1
259	1
260	1
261	1
262	1
263	1
264	1
265	1
266	1
267	1
268	1
269	1
270	1
271	1
272	1
273	1
274	1
275	1
276	1
277	1
278	1
279	1
280	1
281	1
282	1
283	1
284	1
285	1
286	1
287	1
288	1
289	1
290	1
291	1
292	1
293	1
294	1
295	1
296	1
297	1
298	1
299	1
300	1
301	1
302	1
303	1
304	1
305	1
306	1
307	1
308	1
309	1
310	1
311	1
312	1
313	1
314	1
315	1
316	1
317	1
318	1
319	1
320	1
321	1
322	1
323	1
324	1
325	1
326	1
327	1
328	1
329	1
330	1
331	1
332	1
333	1
334	1
335	1
336	1
337	1
338	1
339	1
340	1
341	1
342	1
343	1
344	1
345	1
346	1
347	1
348	1
349	1
350	1
351	1
352	1
353	1
354	1
355	1
356	1
357	1
358	1
359	1
360	1
361	1
362	1
363	1
364	1
365	1
366	1
367	1
368	1
369	1
370	1
371	1
372	1
373	1
374	1
375	1
376	1
377	1
378	1
379	1
380	1
381	1
382	1
383	1
384	1
385	1
386	1
387	1
388	1
389	1
390	1
391	1
392	1
393	1
394	1
395	1
396	1
397	1
398	1
399	1
400	1
401	1
402	1
403	1
404	1
405	1
406	1
407	1
408	1
409	1
410	1
411	1
412	1
413	1
414	1
415	1
416	1
417	1
418	1
419	1
420	1
421	1
422	1
423	1
424	1
425	1
426	1
427	1
428	1
429	1
430	1
431	1
432	1
433	1
434	1
435	1
436	1
437	1
438	1
439	1
440	1
441	1
442	1
443	1
444	1
445	1
446	1
447	1
448	1
449	1
450	1
451	1
452	1
453	1
454	1
455	1
456	1
457	1
458	1
459	1
460	1
461	1
462	1
463	1
464	1
465	1
466	1
467	1
468	1
469	1
470	1
471	1
472	1
473	1
474	1
475	1
476	1
477	1
478	1
479	1
480	1
481	1
482	1
483	1
484	1
485	1
486	1
487	1
488	1
489	1
490	1
491	1
492	1
493	1
494	1
495	1
496	1
497	1
498	1
499	1
500	1
501	1
502	1
DEPOT_SECTION	
	1
	-1
EOF	
